HUN,8,6,656
3,14,2,76,5,97,0,19,1,9,4,73
4,41,3,50,5,41,0,88,1,30,2,40
0,18,3,71,4,5,5,42,2,20,1,33
0,36,2,97,5,26,4,76,3,47,1,65
2,18,5,67,1,100,4,51,3,79,0,30
2,40,4,70,5,93,1,3,0,78,3,82
1,14,2,30,3,51,4,99,0,16,5,65
1,85,2,29,4,70,3,97,0,84,5,17
